(set-option :produce-models true)
(set-logic QF_LRA)
(set-info :notes | Strip-packing problem.|)
(declare-fun x0 () Real)
(declare-fun y0 () Real)
(declare-fun x1 () Real)
(declare-fun y1 () Real)
(declare-fun x2 () Real)
(declare-fun y2 () Real)
(declare-fun x3 () Real)
(declare-fun y3 () Real)
(declare-fun x4 () Real)
(declare-fun y4 () Real)
(declare-fun x5 () Real)
(declare-fun y5 () Real)
(declare-fun x6 () Real)
(declare-fun y6 () Real)
(declare-fun x7 () Real)
(declare-fun y7 () Real)
(declare-fun x8 () Real)
(declare-fun y8 () Real)
(declare-fun z () Real)
(declare-fun c () Real)
(assert (and (= c z) (and (>= x0 0) 
(and (>= y0 0) 
(and (>= x1 0) 
(and (>= y1 0) 
(and (>= x2 0) 
(and (>= y2 0) 
(and (>= x3 0) 
(and (>= y3 0) 
(and (>= x4 0) 
(and (>= y4 0) 
(and (>= x5 0) 
(and (>= y5 0) 
(and (>= x6 0) 
(and (>= y6 0) 
(and (>= x7 0) 
(and (>= y7 0) 
(and (>= x8 0) 
(and (>= y8 0) 
(and (>= z 0) 
(and (>= c 0) 
(and (<= (+ x0 0.6654402968) z) 
(and (<= 0.8020603958 y0) 
(and (<= y0 1.0) 
(and (<= x0 (- 4.3239192831 0.6654402968)) 
(and (>= x0 0) 
(and (<= (+ x1 0.7654421317) z) 
(and (<= 0.7626032665 y1) 
(and (<= y1 1.0) 
(and (<= x1 (- 4.3239192831 0.7654421317)) 
(and (>= x1 0) 
(and (<= (+ x2 0.7354696974) z) 
(and (<= 0.7461990647 y2) 
(and (<= y2 1.0) 
(and (<= x2 (- 4.3239192831 0.7354696974)) 
(and (>= x2 0) 
(and (<= (+ x3 0.3081198996) z) 
(and (<= 0.6755618563 y3) 
(and (<= y3 1.0) 
(and (<= x3 (- 4.3239192831 0.3081198996)) 
(and (>= x3 0) 
(and (<= (+ x4 0.5202274599) z) 
(and (<= 0.5416688853 y4) 
(and (<= y4 1.0) 
(and (<= x4 (- 4.3239192831 0.5202274599)) 
(and (>= x4 0) 
(and (<= (+ x5 0.510484661) z) 
(and (<= 0.5059653209 y5) 
(and (<= y5 1.0) 
(and (<= x5 (- 4.3239192831 0.510484661)) 
(and (>= x5 0) 
(and (<= (+ x6 0.8187351367) z) 
(and (<= 0.3385694515 y6) 
(and (<= y6 1.0) 
(and (<= x6 (- 4.3239192831 0.8187351367)) 
(and (>= x6 0) 
(and (<= (+ x7 0.3251794296) z) 
(and (<= 0.2128257962 y7) 
(and (<= y7 1.0) 
(and (<= x7 (- 4.3239192831 0.3251794296)) 
(and (>= x7 0) 
(and (<= (+ x8 0.1340544524) z) 
(and (<= 0.0559715866 y8) 
(and (<= y8 1.0) 
(and (<= x8 (- 4.3239192831 0.1340544524)) 
(and (>= x8 0) 
(and (<= c 4.3239192831) 
(and (or (<= (+ x0 0.6654402968) x1) (or (<= (+ x1 0.7654421317) x0) (or (>= (- y0 0.8020603958) y1) (or (>= (- y1 0.7626032665) y0))))) 
(and (or (<= (+ x0 0.6654402968) x2) (or (<= (+ x2 0.7354696974) x0) (or (>= (- y0 0.8020603958) y2) (or (>= (- y2 0.7461990647) y0))))) 
(and (or (<= (+ x0 0.6654402968) x3) (or (<= (+ x3 0.3081198996) x0) (or (>= (- y0 0.8020603958) y3) (or (>= (- y3 0.6755618563) y0))))) 
(and (or (<= (+ x0 0.6654402968) x4) (or (<= (+ x4 0.5202274599) x0) (or (>= (- y0 0.8020603958) y4) (or (>= (- y4 0.5416688853) y0))))) 
(and (or (<= (+ x0 0.6654402968) x5) (or (<= (+ x5 0.510484661) x0) (or (>= (- y0 0.8020603958) y5) (or (>= (- y5 0.5059653209) y0))))) 
(and (or (<= (+ x0 0.6654402968) x6) (or (<= (+ x6 0.8187351367) x0) (or (>= (- y0 0.8020603958) y6) (or (>= (- y6 0.3385694515) y0))))) 
(and (or (<= (+ x0 0.6654402968) x7) (or (<= (+ x7 0.3251794296) x0) (or (>= (- y0 0.8020603958) y7) (or (>= (- y7 0.2128257962) y0))))) 
(and (or (<= (+ x0 0.6654402968) x8) (or (<= (+ x8 0.1340544524) x0) (or (>= (- y0 0.8020603958) y8) (or (>= (- y8 0.0559715866) y0))))) 
(and (or (<= (+ x1 0.7654421317) x2) (or (<= (+ x2 0.7354696974) x1) (or (>= (- y1 0.7626032665) y2) (or (>= (- y2 0.7461990647) y1))))) 
(and (or (<= (+ x1 0.7654421317) x3) (or (<= (+ x3 0.3081198996) x1) (or (>= (- y1 0.7626032665) y3) (or (>= (- y3 0.6755618563) y1))))) 
(and (or (<= (+ x1 0.7654421317) x4) (or (<= (+ x4 0.5202274599) x1) (or (>= (- y1 0.7626032665) y4) (or (>= (- y4 0.5416688853) y1))))) 
(and (or (<= (+ x1 0.7654421317) x5) (or (<= (+ x5 0.510484661) x1) (or (>= (- y1 0.7626032665) y5) (or (>= (- y5 0.5059653209) y1))))) 
(and (or (<= (+ x1 0.7654421317) x6) (or (<= (+ x6 0.8187351367) x1) (or (>= (- y1 0.7626032665) y6) (or (>= (- y6 0.3385694515) y1))))) 
(and (or (<= (+ x1 0.7654421317) x7) (or (<= (+ x7 0.3251794296) x1) (or (>= (- y1 0.7626032665) y7) (or (>= (- y7 0.2128257962) y1))))) 
(and (or (<= (+ x1 0.7654421317) x8) (or (<= (+ x8 0.1340544524) x1) (or (>= (- y1 0.7626032665) y8) (or (>= (- y8 0.0559715866) y1))))) 
(and (or (<= (+ x2 0.7354696974) x3) (or (<= (+ x3 0.3081198996) x2) (or (>= (- y2 0.7461990647) y3) (or (>= (- y3 0.6755618563) y2))))) 
(and (or (<= (+ x2 0.7354696974) x4) (or (<= (+ x4 0.5202274599) x2) (or (>= (- y2 0.7461990647) y4) (or (>= (- y4 0.5416688853) y2))))) 
(and (or (<= (+ x2 0.7354696974) x5) (or (<= (+ x5 0.510484661) x2) (or (>= (- y2 0.7461990647) y5) (or (>= (- y5 0.5059653209) y2))))) 
(and (or (<= (+ x2 0.7354696974) x6) (or (<= (+ x6 0.8187351367) x2) (or (>= (- y2 0.7461990647) y6) (or (>= (- y6 0.3385694515) y2))))) 
(and (or (<= (+ x2 0.7354696974) x7) (or (<= (+ x7 0.3251794296) x2) (or (>= (- y2 0.7461990647) y7) (or (>= (- y7 0.2128257962) y2))))) 
(and (or (<= (+ x2 0.7354696974) x8) (or (<= (+ x8 0.1340544524) x2) (or (>= (- y2 0.7461990647) y8) (or (>= (- y8 0.0559715866) y2))))) 
(and (or (<= (+ x3 0.3081198996) x4) (or (<= (+ x4 0.5202274599) x3) (or (>= (- y3 0.6755618563) y4) (or (>= (- y4 0.5416688853) y3))))) 
(and (or (<= (+ x3 0.3081198996) x5) (or (<= (+ x5 0.510484661) x3) (or (>= (- y3 0.6755618563) y5) (or (>= (- y5 0.5059653209) y3))))) 
(and (or (<= (+ x3 0.3081198996) x6) (or (<= (+ x6 0.8187351367) x3) (or (>= (- y3 0.6755618563) y6) (or (>= (- y6 0.3385694515) y3))))) 
(and (or (<= (+ x3 0.3081198996) x7) (or (<= (+ x7 0.3251794296) x3) (or (>= (- y3 0.6755618563) y7) (or (>= (- y7 0.2128257962) y3))))) 
(and (or (<= (+ x3 0.3081198996) x8) (or (<= (+ x8 0.1340544524) x3) (or (>= (- y3 0.6755618563) y8) (or (>= (- y8 0.0559715866) y3))))) 
(and (or (<= (+ x4 0.5202274599) x5) (or (<= (+ x5 0.510484661) x4) (or (>= (- y4 0.5416688853) y5) (or (>= (- y5 0.5059653209) y4))))) 
(and (or (<= (+ x4 0.5202274599) x6) (or (<= (+ x6 0.8187351367) x4) (or (>= (- y4 0.5416688853) y6) (or (>= (- y6 0.3385694515) y4))))) 
(and (or (<= (+ x4 0.5202274599) x7) (or (<= (+ x7 0.3251794296) x4) (or (>= (- y4 0.5416688853) y7) (or (>= (- y7 0.2128257962) y4))))) 
(and (or (<= (+ x4 0.5202274599) x8) (or (<= (+ x8 0.1340544524) x4) (or (>= (- y4 0.5416688853) y8) (or (>= (- y8 0.0559715866) y4))))) 
(and (or (<= (+ x5 0.510484661) x6) (or (<= (+ x6 0.8187351367) x5) (or (>= (- y5 0.5059653209) y6) (or (>= (- y6 0.3385694515) y5))))) 
(and (or (<= (+ x5 0.510484661) x7) (or (<= (+ x7 0.3251794296) x5) (or (>= (- y5 0.5059653209) y7) (or (>= (- y7 0.2128257962) y5))))) 
(and (or (<= (+ x5 0.510484661) x8) (or (<= (+ x8 0.1340544524) x5) (or (>= (- y5 0.5059653209) y8) (or (>= (- y8 0.0559715866) y5))))) 
(and (or (<= (+ x6 0.8187351367) x7) (or (<= (+ x7 0.3251794296) x6) (or (>= (- y6 0.3385694515) y7) (or (>= (- y7 0.2128257962) y6))))) 
(and (or (<= (+ x6 0.8187351367) x8) (or (<= (+ x8 0.1340544524) x6) (or (>= (- y6 0.3385694515) y8) (or (>= (- y8 0.0559715866) y6))))) 
(and (or (<= (+ x7 0.3251794296) x8) (or (<= (+ x8 0.1340544524) x7) (or (>= (- y7 0.2128257962) y8) (or (>= (- y8 0.0559715866) y7))))) ))))))))))))))))))))))))))))))))))))))))))))))))))))))))))))))))))))))))))))))))))))))))))))))))))))))))
(minimize c)
(check-sat)
(get-objectives)
(exit)
